(declare-const i Int)
(declare-const w Real)
(declare-const term_to_project_onto0 Real)
(declare-const |w'| Real)
(declare-const uninterp Real)
(declare-const j Int)
(declare-const term_to_project_onto Real)
(declare-const |j'| Int)
(assert (and (<= (- j) 0) (<= (+ (- i) 1) 0) (<= (+ (- i) j 1) 0)
               (= (+ uninterp (- w) |w'|) 0) (= (+ |j'| (- j) -1) 0)
               (= term_to_project_onto0 (+ |j'| (- j)))
               (= term_to_project_onto (+ |w'| (- w)))))
(check-sat)
